WARNING: for repeatability, setting FPU to use double precision
============================[ Problem Statistics ]=============================
|                                                                             |
|  Number of variables:           205                                         |
|  Number of clauses:            4549                                         |
|  Parse time:                   0.00 s                                       |
|                                                                             |
c ============================[ Search Statistics ]==============================
c | Conflicts |          ORIGINAL         |          LEARNT          | Progress |
c |           |    Vars  Clauses Literals |    Limit  Clauses Lit/Cl |          |
c ===============================================================================
c Switched to VSIDS.
c Switched to LRB.
c Switched to VSIDS.
c Switched to LRB.
c Switched to VSIDS.
c Switched to LRB.
c Switched to VSIDS.
c Switched to LRB.
c Switched to VSIDS.
c Switched to LRB.
c Switched to VSIDS.
c Switched to LRB.
c Switched to VSIDS.
c Switched to LRB.
c ===============================================================================
restarts                  : 13446
conflicts                 : 6004323        (11041 /sec)
decisions                 : 7929195        (0.00 % random) (14581 /sec)
propagations              : 885462778      (1628231 /sec)
conflict literals         : 139270788      (49.05 % deleted)

conflicts w/ DIP found    : 1922733        (32.02 % of conflicts)
conflicts w/ dangerous DIP: 0              (0.00 % of conflicts)
conflicts w/ DIP-learning : 50213          (0.84 % of conflicts)
decisions on ext vars     : 22175          (0.28 % of decisions)
total ext vars            : 18739       
tried delete ext vars     : 19046       
deleted ext vars          : 18425       
max ext vars              : 483         

Memory used               : 71.00 MB
CPU time                  : 543.819 s
DIP computation time      : 23.1091 s (4.25 % of total time)
ER_sel time               : 5.37185 s
ER_add time               : 0.053451 s
ER_delC time              : 0 s
ER_delV time              : 0.442585 s
ER_sub time               : 6.42932 s
ER_stat time              : 0 s

UNSATISFIABLE
